n_res = 4;
rc = [ 0, 0, 0, 0 ];
n_tasks = 30;
d = [ 5, 3, 6, 4, 7, 2, 3, 8, 2, 4, 4, 3, 3, 7, 4, 5, 5, 3, 8, 7, 4, 2, 10, 8, 6, 4, 8, 1, 4, 4 ];
rr = [| 0, 0, 0, 0, 0, 0, 0, 0, 0, 0, 0, 0, 0, 0, 0, 0, 0, 0, 0, 0, 0, 0, 0, 0, 0, 0, 0, 0, 0, 0
      | 0, 0, 0, 0, 0, 0, 0, 0, 0, 0, 0, 0, 0, 0, 0, 0, 0, 0, 0, 0, 0, 0, 0, 0, 0, 0, 0, 0, 0, 0
      | 0, 0, 0, 0, 0, 0, 0, 0, 0, 0, 0, 0, 0, 0, 0, 0, 0, 0, 0, 0, 0, 0, 0, 0, 0, 0, 0, 0, 0, 0
      | 0, 0, 0, 0, 0, 0, 0, 0, 0, 0, 0, 0, 0, 0, 0, 0, 0, 0, 0, 0, 0, 0, 0, 0, 0, 0, 0, 0, 0, 0 |];
suc = [ { 26 },
       { 9, 12, 23 },
       { 4, 8, 28 },
       { 5, 6, 22 },
       { 7, 15 },
       { 10, 30 },
       { 13 },
       { 11, 17, 18 },
       { 14, 15 },
       { 19 },
       { 21 },
       { 26 },
       { 19, 24 },
       { 24 },
       { 16, 20 },
       { 27 },
       { 24 },
       { 20 },
       { 23, 26 },
       { 27 },
       { 25 },
       { 23, 30 },
       { 29 },
       { 25 },
       { 30 },
       { 29 },
       { 29 },
       {  },
       {  },
       {  } ];
